Maximize
  0.00683285969148949 Z_414_0_0 + 0.617190494970642 Z_414_0_1
   + 0.0654134317035912 Z_414_0_2 + 0.0323569280140795 Z_414_0_3
   + 0.00455737247125702 Z_368_5_0 + 0.0452888250367464 Z_368_5_1
   + 0.1119201173967467 Z_368_5_2 + 0.0325526836292937 Z_368_5_3
   + 0.0169196384956073 Z_368_3_0 + 0.0170728165338101 Z_368_3_1
   + 0.0187951604628272 Z_368_3_2 + 0.018267807157476 Z_368_3_3
   + 7.5395284460295648e-04 Z_368_1_0 + 0.0223191442073019 Z_368_1_1
   + 0.0446110862173169 Z_368_1_2 + 0.0111576156340941 Z_368_1_3
   + 0.1182779445381757 Z_368_6_0 + 0.1873748312201289 Z_368_6_1
   + 0.0118016265305467 Z_368_6_2 + 0.0726705513843509 Z_368_6_3
   + 0.0284767612693592 Z_368_2_0 + 0.1254476927247318 Z_368_2_1
   + 0.0198406305594511 Z_368_2_2 + 0.0367071782759126 Z_368_2_3
   + 0.1064424095111538 Z_368_7_0 + 0.1380098422256999 Z_368_7_1
   + 0.00520002275018893 Z_368_7_2 + 0.0368678562817024 Z_368_7_3
   + 0.00455737247125702 Z_368_4_0 + 0.0452888250367464 Z_368_4_1
   + 0.1119201173967467 Z_368_4_2 + 0.0325526836292937 Z_368_4_3
   + 0.1064424095111538 Z_368_0_0 + 0.1380098422256999 Z_368_0_1
   + 0.00520002275018893 Z_368_0_2 + 0.0368678562817024 Z_368_0_3
   + 0.0105121405066884 Z_312_0_0 + 0.6135622103987239 Z_312_0_1
   + 0.0824546316045004 Z_312_0_2 + 0.2420695499433581 Z_312_0_3
   + 0.00564967693757633 Z_501_0_0 + 0.4612555361296017 Z_501_0_1
   + 0.0252227624458725 Z_501_0_2 + 0.0436933127088159 Z_501_0_3
   + 0.0105342470306839 Z_575_1_0 + 0.059349045280742 Z_575_1_1
   + 0.0402403820815356 Z_575_1_2 + 0.0127027912771063 Z_575_1_3
   + 0.0209826534286748 Z_575_2_0 + 0.3752370923593781 Z_575_2_1
   + 0.0308505125215456 Z_575_2_2 + 0.039191600510868 Z_575_2_3
   + 0.0145601150526776 Z_575_0_0 + 0.3658719501600049 Z_575_0_1
   + 0.0614275500246748 Z_575_0_2 + 0.0691058691467704 Z_575_0_3
   + 0.0145601150526776 Z_575_3_0 + 0.3658719501600049 Z_575_3_1
   + 0.0614275500246748 Z_575_3_2 + 0.0691058691467704 Z_575_3_3
   + 0.00596203399648861 Z_529_1_0 + 0.0165972083054972 Z_529_1_1
   + 0.0397415167491203 Z_529_1_2 + 0.0110845341765612 Z_529_1_3
   + 0.0102306425687396 Z_529_2_0 + 0.0644073796584553 Z_529_2_1
   + 0.0081165809352727 Z_529_2_2 + 0.0251678968528935 Z_529_2_3
   + 0.023131361610347 Z_529_3_0 + 0.0920306944592418 Z_529_3_1
   + 0.0191853585511208 Z_529_3_2 + 0.0464480560414245 Z_529_3_3
   + 0.0159998613416191 Z_529_0_0 + 0.0344519652845796 Z_529_0_1
   + 0.2000375296352668 Z_529_0_2 + 0.0849647309384743 Z_529_0_3
   + 0.000461635 Z_466_0_0 + 0.0615430681829351 Z_466_0_1
   + 0.6281168304770766 Z_466_0_2 + 0.00656576027826748 Z_466_0_3 + [
   0.0444444444444444 Z_414_0_0 * Z_368_5_0
   + 0.00163024391241121 Z_414_0_0 * Z_368_6_0
   + 0.1024475880686034 Z_414_0_0 * Z_368_2_0
   + 0.00783329472909519 Z_414_0_0 * Z_368_4_0
   + 0.0215377796695215 Z_414_0_0 * Z_312_0_0
   + 0.0109058909425994 Z_414_0_0 * Z_501_0_0
   + 0.0406443593987191 Z_414_0_0 * Z_575_2_0
   + 0.1699762501742847 Z_414_0_0 * Z_575_0_0
   + 0.0945473193430223 Z_414_0_0 * Z_575_3_0 + 0.4 Z_414_0_0 * Z_466_0_0
   + 0.0444444444444444 Z_414_0_1 * Z_368_5_1
   + 0.00163024391241121 Z_414_0_1 * Z_368_6_1
   + 0.1024475880686034 Z_414_0_1 * Z_368_2_1
   + 0.00783329472909519 Z_414_0_1 * Z_368_4_1
   + 0.0215377796695215 Z_414_0_1 * Z_312_0_1
   + 0.0109058909425994 Z_414_0_1 * Z_501_0_1
   + 0.0406443593987191 Z_414_0_1 * Z_575_2_1
   + 0.1699762501742847 Z_414_0_1 * Z_575_0_1
   + 0.0945473193430223 Z_414_0_1 * Z_575_3_1 + 0.4 Z_414_0_1 * Z_466_0_1
   + 0.0444444444444444 Z_414_0_2 * Z_368_5_2
   + 0.00163024391241121 Z_414_0_2 * Z_368_6_2
   + 0.1024475880686034 Z_414_0_2 * Z_368_2_2
   + 0.00783329472909519 Z_414_0_2 * Z_368_4_2
   + 0.0215377796695215 Z_414_0_2 * Z_312_0_2
   + 0.0109058909425994 Z_414_0_2 * Z_501_0_2
   + 0.0406443593987191 Z_414_0_2 * Z_575_2_2
   + 0.1699762501742847 Z_414_0_2 * Z_575_0_2
   + 0.0945473193430223 Z_414_0_2 * Z_575_3_2 + 0.4 Z_414_0_2 * Z_466_0_2
   + 0.0444444444444444 Z_414_0_3 * Z_368_5_3
   + 0.00163024391241121 Z_414_0_3 * Z_368_6_3
   + 0.1024475880686034 Z_414_0_3 * Z_368_2_3
   + 0.00783329472909519 Z_414_0_3 * Z_368_4_3
   + 0.0215377796695215 Z_414_0_3 * Z_312_0_3
   + 0.0109058909425994 Z_414_0_3 * Z_501_0_3
   + 0.0406443593987191 Z_414_0_3 * Z_575_2_3
   + 0.1699762501742847 Z_414_0_3 * Z_575_0_3
   + 0.0945473193430223 Z_414_0_3 * Z_575_3_3 + 0.4 Z_414_0_3 * Z_466_0_3
   + 9.18274e-05 Z_368_5_0 * Z_312_0_0
   + 0.0425330812854442 Z_368_5_0 * Z_501_0_0
   + 0.0284464385622253 Z_368_5_0 * Z_575_0_0
   + 0.0158230017908777 Z_368_5_0 * Z_575_3_0
   + 0.0669421487603306 Z_368_5_0 * Z_466_0_0
   + 9.18274e-05 Z_368_5_1 * Z_312_0_1
   + 0.0425330812854442 Z_368_5_1 * Z_501_0_1
   + 0.0284464385622253 Z_368_5_1 * Z_575_0_1
   + 0.0158230017908777 Z_368_5_1 * Z_575_3_1
   + 0.0669421487603306 Z_368_5_1 * Z_466_0_1
   + 9.18274e-05 Z_368_5_2 * Z_312_0_2
   + 0.0425330812854442 Z_368_5_2 * Z_501_0_2
   + 0.0284464385622253 Z_368_5_2 * Z_575_0_2
   + 0.0158230017908777 Z_368_5_2 * Z_575_3_2
   + 0.0669421487603306 Z_368_5_2 * Z_466_0_2
   + 9.18274e-05 Z_368_5_3 * Z_312_0_3
   + 0.0425330812854442 Z_368_5_3 * Z_501_0_3
   + 0.0284464385622253 Z_368_5_3 * Z_575_0_3
   + 0.0158230017908777 Z_368_5_3 * Z_575_3_3
   + 0.0669421487603306 Z_368_5_3 * Z_466_0_3 + 0.4 Z_368_3_0 * Z_575_2_0
   + 0.4 Z_368_3_0 * Z_529_2_0 + 0.4 Z_368_3_1 * Z_575_2_1
   + 0.4 Z_368_3_1 * Z_529_2_1 + 0.4 Z_368_3_2 * Z_575_2_2
   + 0.4 Z_368_3_2 * Z_529_2_2 + 0.4 Z_368_3_3 * Z_575_2_3
   + 0.4 Z_368_3_3 * Z_529_2_3 + 0.4 Z_368_1_0 * Z_575_1_0
   + 0.4 Z_368_1_0 * Z_529_1_0 + 0.4 Z_368_1_1 * Z_575_1_1
   + 0.4 Z_368_1_1 * Z_529_1_1 + 0.4 Z_368_1_2 * Z_575_1_2
   + 0.4 Z_368_1_2 * Z_529_1_2 + 0.4 Z_368_1_3 * Z_575_1_3
   + 0.4 Z_368_1_3 * Z_529_1_3 + 0.1802961998887932 Z_368_6_0 * Z_312_0_0
   + 0.2197038001112067 Z_368_6_0 * Z_501_0_0
   + 0.00659457903568735 Z_368_6_0 * Z_575_0_0
   + 0.00366815816551211 Z_368_6_0 * Z_575_3_0
   + 0.0155188246097337 Z_368_6_0 * Z_466_0_0
   + 0.1802961998887932 Z_368_6_1 * Z_312_0_1
   + 0.2197038001112067 Z_368_6_1 * Z_501_0_1
   + 0.00659457903568735 Z_368_6_1 * Z_575_0_1
   + 0.00366815816551211 Z_368_6_1 * Z_575_3_1
   + 0.0155188246097337 Z_368_6_1 * Z_466_0_1
   + 0.1802961998887932 Z_368_6_2 * Z_312_0_2
   + 0.2197038001112067 Z_368_6_2 * Z_501_0_2
   + 0.00659457903568735 Z_368_6_2 * Z_575_0_2
   + 0.00366815816551211 Z_368_6_2 * Z_575_3_2
   + 0.0155188246097337 Z_368_6_2 * Z_466_0_2
   + 0.1802961998887932 Z_368_6_3 * Z_312_0_3
   + 0.2197038001112067 Z_368_6_3 * Z_501_0_3
   + 0.00659457903568735 Z_368_6_3 * Z_575_0_3
   + 0.00366815816551211 Z_368_6_3 * Z_575_3_3
   + 0.0155188246097337 Z_368_6_3 * Z_466_0_3 + 0.4 Z_368_2_0 * Z_312_0_0
   + 0.1024475880686034 Z_368_2_0 * Z_575_2_0 + 0.4 Z_368_2_1 * Z_312_0_1
   + 0.1024475880686034 Z_368_2_1 * Z_575_2_1 + 0.4 Z_368_2_2 * Z_312_0_2
   + 0.1024475880686034 Z_368_2_2 * Z_575_2_2 + 0.4 Z_368_2_3 * Z_312_0_3
   + 0.1024475880686034 Z_368_2_3 * Z_575_2_3
   + 0.0584940080298579 Z_368_4_0 * Z_312_0_0
   + 0.0614658130657978 Z_368_4_0 * Z_501_0_0
   + 0.0284464385622253 Z_368_4_0 * Z_575_0_0
   + 0.0158230017908777 Z_368_4_0 * Z_575_3_0
   + 0.1041307736010298 Z_368_4_0 * Z_529_3_0
   + 0.0669421487603306 Z_368_4_0 * Z_466_0_0
   + 0.0584940080298579 Z_368_4_1 * Z_312_0_1
   + 0.0614658130657978 Z_368_4_1 * Z_501_0_1
   + 0.0284464385622253 Z_368_4_1 * Z_575_0_1
   + 0.0158230017908777 Z_368_4_1 * Z_575_3_1
   + 0.1041307736010298 Z_368_4_1 * Z_529_3_1
   + 0.0669421487603306 Z_368_4_1 * Z_466_0_1
   + 0.0584940080298579 Z_368_4_2 * Z_312_0_2
   + 0.0614658130657978 Z_368_4_2 * Z_501_0_2
   + 0.0284464385622253 Z_368_4_2 * Z_575_0_2
   + 0.0158230017908777 Z_368_4_2 * Z_575_3_2
   + 0.1041307736010298 Z_368_4_2 * Z_529_3_2
   + 0.0669421487603306 Z_368_4_2 * Z_466_0_2
   + 0.0584940080298579 Z_368_4_3 * Z_312_0_3
   + 0.0614658130657978 Z_368_4_3 * Z_501_0_3
   + 0.0284464385622253 Z_368_4_3 * Z_575_0_3
   + 0.0158230017908777 Z_368_4_3 * Z_575_3_3
   + 0.1041307736010298 Z_368_4_3 * Z_529_3_3
   + 0.0669421487603306 Z_368_4_3 * Z_466_0_3
   + 0.1193245233411907 Z_312_0_0 * Z_501_0_0
   + 0.1022218252381916 Z_312_0_0 * Z_575_2_0
   + 0.1929700426546235 Z_312_0_0 * Z_575_0_0
   + 0.1073373499403362 Z_312_0_0 * Z_575_3_0
   + 0.0850827816632928 Z_312_0_0 * Z_529_2_0
   + 0.0155188246097337 Z_312_0_0 * Z_466_0_0
   + 0.1193245233411907 Z_312_0_1 * Z_501_0_1
   + 0.1022218252381916 Z_312_0_1 * Z_575_2_1
   + 0.1929700426546235 Z_312_0_1 * Z_575_0_1
   + 0.1073373499403362 Z_312_0_1 * Z_575_3_1
   + 0.0850827816632928 Z_312_0_1 * Z_529_2_1
   + 0.0155188246097337 Z_312_0_1 * Z_466_0_1
   + 0.1193245233411907 Z_312_0_2 * Z_501_0_2
   + 0.1022218252381916 Z_312_0_2 * Z_575_2_2
   + 0.1929700426546235 Z_312_0_2 * Z_575_0_2
   + 0.1073373499403362 Z_312_0_2 * Z_575_3_2
   + 0.0850827816632928 Z_312_0_2 * Z_529_2_2
   + 0.0155188246097337 Z_312_0_2 * Z_466_0_2
   + 0.1193245233411907 Z_312_0_3 * Z_501_0_3
   + 0.1022218252381916 Z_312_0_3 * Z_575_2_3
   + 0.1929700426546235 Z_312_0_3 * Z_575_0_3
   + 0.1073373499403362 Z_312_0_3 * Z_575_3_3
   + 0.0850827816632928 Z_312_0_3 * Z_529_2_3
   + 0.0155188246097337 Z_312_0_3 * Z_466_0_3
   + 0.0758663689698525 Z_501_0_0 * Z_575_2_0
   + 0.2625098957607146 Z_501_0_0 * Z_575_0_0
   + 0.146018087348927 Z_501_0_0 * Z_575_3_0
   + 0.0850827816632928 Z_501_0_0 * Z_529_2_0
   + 0.00593029319452345 Z_501_0_0 * Z_529_3_0 + 0.1 Z_501_0_0 * Z_466_0_0
   + 0.0758663689698525 Z_501_0_1 * Z_575_2_1
   + 0.2625098957607146 Z_501_0_1 * Z_575_0_1
   + 0.146018087348927 Z_501_0_1 * Z_575_3_1
   + 0.0850827816632928 Z_501_0_1 * Z_529_2_1
   + 0.00593029319452345 Z_501_0_1 * Z_529_3_1 + 0.1 Z_501_0_1 * Z_466_0_1
   + 0.0758663689698525 Z_501_0_2 * Z_575_2_2
   + 0.2625098957607146 Z_501_0_2 * Z_575_0_2
   + 0.146018087348927 Z_501_0_2 * Z_575_3_2
   + 0.0850827816632928 Z_501_0_2 * Z_529_2_2
   + 0.00593029319452345 Z_501_0_2 * Z_529_3_2 + 0.1 Z_501_0_2 * Z_466_0_2
   + 0.0758663689698525 Z_501_0_3 * Z_575_2_3
   + 0.2625098957607146 Z_501_0_3 * Z_575_0_3
   + 0.146018087348927 Z_501_0_3 * Z_575_3_3
   + 0.0850827816632928 Z_501_0_3 * Z_529_2_3
   + 0.00593029319452345 Z_501_0_3 * Z_529_3_3 + 0.1 Z_501_0_3 * Z_466_0_3
   + 0.4 Z_575_1_0 * Z_529_1_0 + 0.4 Z_575_1_1 * Z_529_1_1
   + 0.4 Z_575_1_2 * Z_529_1_2 + 0.4 Z_575_1_3 * Z_529_1_3
   + 0.2449832957148093 Z_575_2_0 * Z_529_2_0
   + 0.1128472222222222 Z_575_2_0 * Z_466_0_0
   + 0.2449832957148093 Z_575_2_1 * Z_529_2_1
   + 0.1128472222222222 Z_575_2_1 * Z_466_0_1
   + 0.2449832957148093 Z_575_2_2 * Z_529_2_2
   + 0.1128472222222222 Z_575_2_2 * Z_466_0_2
   + 0.2449832957148093 Z_575_2_3 * Z_529_2_3
   + 0.1128472222222222 Z_575_2_3 * Z_466_0_3
   + 0.2300237498257152 Z_575_0_0 * Z_529_2_0 + 0.4 Z_575_0_0 * Z_466_0_0
   + 0.2300237498257152 Z_575_0_1 * Z_529_2_1 + 0.4 Z_575_0_1 * Z_466_0_1
   + 0.2300237498257152 Z_575_0_2 * Z_529_2_2 + 0.4 Z_575_0_2 * Z_466_0_2
   + 0.2300237498257152 Z_575_0_3 * Z_529_2_3 + 0.4 Z_575_0_3 * Z_466_0_3
   + 0.1279480451472013 Z_575_3_0 * Z_529_2_0 + 0.4 Z_575_3_0 * Z_466_0_0
   + 0.1279480451472013 Z_575_3_1 * Z_529_2_1 + 0.4 Z_575_3_1 * Z_466_0_1
   + 0.1279480451472013 Z_575_3_2 * Z_529_2_2 + 0.4 Z_575_3_2 * Z_466_0_2
   + 0.1279480451472013 Z_575_3_3 * Z_529_2_3 + 0.4 Z_575_3_3 * Z_466_0_3
   ] / 2 
Subject To
 constraint1_4140: Z_414_0_0 + Z_414_0_1 + Z_414_0_2 + Z_414_0_3 <= 1
 constraint1_3685: Z_368_5_0 + Z_368_5_1 + Z_368_5_2 + Z_368_5_3 <= 1
 constraint1_3683: Z_368_3_0 + Z_368_3_1 + Z_368_3_2 + Z_368_3_3 <= 1
 constraint1_3681: Z_368_1_0 + Z_368_1_1 + Z_368_1_2 + Z_368_1_3 <= 1
 constraint1_3686: Z_368_6_0 + Z_368_6_1 + Z_368_6_2 + Z_368_6_3 <= 1
 constraint1_3682: Z_368_2_0 + Z_368_2_1 + Z_368_2_2 + Z_368_2_3 <= 1
 constraint1_3687: Z_368_7_0 + Z_368_7_1 + Z_368_7_2 + Z_368_7_3 <= 1
 constraint1_3684: Z_368_4_0 + Z_368_4_1 + Z_368_4_2 + Z_368_4_3 <= 1
 constraint1_3680: Z_368_0_0 + Z_368_0_1 + Z_368_0_2 + Z_368_0_3 <= 1
 constraint1_3120: Z_312_0_0 + Z_312_0_1 + Z_312_0_2 + Z_312_0_3 <= 1
 constraint1_5010: Z_501_0_0 + Z_501_0_1 + Z_501_0_2 + Z_501_0_3 <= 1
 constraint1_5751: Z_575_1_0 + Z_575_1_1 + Z_575_1_2 + Z_575_1_3 <= 1
 constraint1_5752: Z_575_2_0 + Z_575_2_1 + Z_575_2_2 + Z_575_2_3 <= 1
 constraint1_5750: Z_575_0_0 + Z_575_0_1 + Z_575_0_2 + Z_575_0_3 <= 1
 constraint1_5753: Z_575_3_0 + Z_575_3_1 + Z_575_3_2 + Z_575_3_3 <= 1
 constraint1_5291: Z_529_1_0 + Z_529_1_1 + Z_529_1_2 + Z_529_1_3 <= 1
 constraint1_5292: Z_529_2_0 + Z_529_2_1 + Z_529_2_2 + Z_529_2_3 <= 1
 constraint1_5293: Z_529_3_0 + Z_529_3_1 + Z_529_3_2 + Z_529_3_3 <= 1
 constraint1_5290: Z_529_0_0 + Z_529_0_1 + Z_529_0_2 + Z_529_0_3 <= 1
 constraint1_4660: Z_466_0_0 + Z_466_0_1 + Z_466_0_2 + Z_466_0_3 <= 1
 constraint2_4140: Z_414_0_0 <= 1
 constraint2_4141: Z_414_0_1 <= 1
 constraint2_4142: Z_414_0_2 <= 1
 constraint2_4143: Z_414_0_3 <= 1
 constraint2_3680: Z_368_5_0 + Z_368_3_0 + Z_368_1_0 + Z_368_6_0
   + Z_368_2_0 + Z_368_7_0 + Z_368_4_0 + Z_368_0_0 <= 1
 constraint2_3681: Z_368_5_1 + Z_368_3_1 + Z_368_1_1 + Z_368_6_1
   + Z_368_2_1 + Z_368_7_1 + Z_368_4_1 + Z_368_0_1 <= 1
 constraint2_3682: Z_368_5_2 + Z_368_3_2 + Z_368_1_2 + Z_368_6_2
   + Z_368_2_2 + Z_368_7_2 + Z_368_4_2 + Z_368_0_2 <= 1
 constraint2_3683: Z_368_5_3 + Z_368_3_3 + Z_368_1_3 + Z_368_6_3
   + Z_368_2_3 + Z_368_7_3 + Z_368_4_3 + Z_368_0_3 <= 1
 constraint2_3120: Z_312_0_0 <= 1
 constraint2_3121: Z_312_0_1 <= 1
 constraint2_3122: Z_312_0_2 <= 1
 constraint2_3123: Z_312_0_3 <= 1
 constraint2_5010: Z_501_0_0 <= 1
 constraint2_5011: Z_501_0_1 <= 1
 constraint2_5012: Z_501_0_2 <= 1
 constraint2_5013: Z_501_0_3 <= 1
 constraint2_5750: Z_575_1_0 + Z_575_2_0 + Z_575_0_0 + Z_575_3_0 <= 1
 constraint2_5751: Z_575_1_1 + Z_575_2_1 + Z_575_0_1 + Z_575_3_1 <= 1
 constraint2_5752: Z_575_1_2 + Z_575_2_2 + Z_575_0_2 + Z_575_3_2 <= 1
 constraint2_5753: Z_575_1_3 + Z_575_2_3 + Z_575_0_3 + Z_575_3_3 <= 1
 constraint2_5290: Z_529_1_0 + Z_529_2_0 + Z_529_3_0 + Z_529_0_0 <= 1
 constraint2_5291: Z_529_1_1 + Z_529_2_1 + Z_529_3_1 + Z_529_0_1 <= 1
 constraint2_5292: Z_529_1_2 + Z_529_2_2 + Z_529_3_2 + Z_529_0_2 <= 1
 constraint2_5293: Z_529_1_3 + Z_529_2_3 + Z_529_3_3 + Z_529_0_3 <= 1
 constraint2_4660: Z_466_0_0 <= 1
 constraint2_4661: Z_466_0_1 <= 1
 constraint2_4662: Z_466_0_2 <= 1
 constraint2_4663: Z_466_0_3 <= 1
Bounds
Binaries
 Z_414_0_0 Z_414_0_1 Z_414_0_2 Z_414_0_3 Z_368_5_0 Z_368_5_1 Z_368_5_2
 Z_368_5_3 Z_368_3_0 Z_368_3_1 Z_368_3_2 Z_368_3_3 Z_368_1_0 Z_368_1_1
 Z_368_1_2 Z_368_1_3 Z_368_6_0 Z_368_6_1 Z_368_6_2 Z_368_6_3 Z_368_2_0
 Z_368_2_1 Z_368_2_2 Z_368_2_3 Z_368_7_0 Z_368_7_1 Z_368_7_2 Z_368_7_3
 Z_368_4_0 Z_368_4_1 Z_368_4_2 Z_368_4_3 Z_368_0_0 Z_368_0_1 Z_368_0_2
 Z_368_0_3 Z_312_0_0 Z_312_0_1 Z_312_0_2 Z_312_0_3 Z_501_0_0 Z_501_0_1
 Z_501_0_2 Z_501_0_3 Z_575_1_0 Z_575_1_1 Z_575_1_2 Z_575_1_3 Z_575_2_0
 Z_575_2_1 Z_575_2_2 Z_575_2_3 Z_575_0_0 Z_575_0_1 Z_575_0_2 Z_575_0_3
 Z_575_3_0 Z_575_3_1 Z_575_3_2 Z_575_3_3 Z_529_1_0 Z_529_1_1 Z_529_1_2
 Z_529_1_3 Z_529_2_0 Z_529_2_1 Z_529_2_2 Z_529_2_3 Z_529_3_0 Z_529_3_1
 Z_529_3_2 Z_529_3_3 Z_529_0_0 Z_529_0_1 Z_529_0_2 Z_529_0_3 Z_466_0_0
 Z_466_0_1 Z_466_0_2 Z_466_0_3
End
